NAME : census.pruned_local_16.0.tour
COMMENT : Length = 0
TYPE : TOUR
DIMENSION : 68
TOUR_SECTION
4
66
19
50
18
21
32
23
9
44
43
40
58
41
57
64
24
8
13
2
38
34
5
17
12
27
48
56
45
33
51
42
49
20
63
10
37
29
39
16
52
65
59
1
55
53
11
54
28
30
3
36
68
61
67
26
47
22
25
15
31
6
14
62
35
60
46
7
-1
EOF
